\ LP format - for model browsing. Use MPS format to capture full model detail.
Minimize
  - 2 x0 + 2 x1 - 2 x2 + x3
Subject To
 constr(0): 4 x0 + 5 x1 + 3 x2 + x3 <= 18
 constr(1): - 5 x0 + 2 x1 + 5 x2 + 5 x3 <= 19
Bounds
 x0 <= 1
 x1 <= 1
 x2 <= 5
 x3 <= 5
Generals
 x0 x1 x2 x3
End
